
Value of objective function: 0

Actual values of the variables:
pL1_div_from_law                0
comp_pos0                       0
comp_neg0                       0
comp_pos1                       0
comp_neg1                       0
comp_pos2                       0
comp_neg2                       0
comp_pos3                       0
comp_neg3                       0
comp_pos4                       0
comp_neg4                       0
comp_pos5                       0
comp_neg5                       0
comp_pos6                       0
comp_neg6                       0
comp_pos7                       0
comp_neg7                       0
comp_pos8                       0
comp_neg8                       0
comp_pos9                       0
comp_neg9                       0
comp_pos10                      0
comp_neg10                      0
comp_pos11                      0
comp_neg11                      0
comp_pos12                      0
comp_neg12                      0
comp_pos13                      0
comp_neg13                      0
z_c0_t0               1.32138e+10
p0_c0_t0               3.2666e+09
p1_c0_t0              3.26178e+09
p2_c0_t0              6.28267e+09
p3_c0_t0              4.02786e+08
diff0                           0
normdiff0                       0
z_c0_t1               1.47752e+10
p0_c0_t1              2.81039e+09
p1_c0_t1              3.65781e+09
p2_c0_t1              7.51812e+09
p3_c0_t1              7.88867e+08
diff1                           0
normdiff1                       0
z_c1_t0               1.65566e+10
p0_c1_t0              3.27006e+09
p1_c1_t0              4.23301e+09
p2_c1_t0                8.877e+09
p3_c1_t0              1.76505e+08
diff2                           0
normdiff2                       0
z_c1_t1               1.94959e+10
p0_c1_t1              3.32853e+09
p1_c1_t1                6.022e+09
p2_c1_t1              9.64093e+09
p3_c1_t1              5.04425e+08
diff3                           0
normdiff3                       0
z_c2_t0               7.24754e+09
p0_c2_t0              1.11571e+09
p1_c2_t0              1.71024e+09
p2_c2_t0               4.1423e+09
p3_c2_t0              2.79288e+08
diff4                           0
normdiff4                       0
z_c2_t1               7.97123e+09
p0_c2_t1              9.05725e+08
p1_c2_t1              1.99905e+09
p2_c2_t1              4.87542e+09
p3_c2_t1              1.91024e+08
diff5                           0
normdiff5                       0
z_c3_t0               1.22612e+10
p0_c3_t0              2.01859e+09
p1_c3_t0              2.92386e+09
p2_c3_t0              6.65854e+09
p3_c3_t0                6.602e+08
diff6                           0
normdiff6                       0
z_c3_t1               1.42798e+10
p0_c3_t1              2.28322e+09
p1_c3_t1              2.99439e+09
p2_c3_t1              8.17777e+09
p3_c3_t1              8.24397e+08
diff7                           0
normdiff7                       0
z_c4_t0               7.97197e+09
p0_c4_t0              8.90953e+08
p1_c4_t0              3.27183e+09
p2_c4_t0              3.68393e+09
p3_c4_t0              1.25261e+08
diff8                           0
normdiff8                       0
z_c4_t1                8.9819e+09
p0_c4_t1              9.21284e+08
p1_c4_t1              3.01217e+09
p2_c4_t1              4.91804e+09
p3_c4_t1              1.30397e+08
diff9                           0
normdiff9                       0
z_c5_t0               1.00642e+10
p0_c5_t0              1.58688e+09
p1_c5_t0              2.76067e+09
p2_c5_t0              5.66446e+09
p3_c5_t0              5.21423e+07
diff10                          0
normdiff10                      0
z_c5_t1                1.2016e+10
p0_c5_t1              1.14781e+09
p1_c5_t1              2.76186e+09
p2_c5_t1              7.89172e+09
p3_c5_t1              2.14612e+08
diff11                          0
normdiff11                      0
z_c6_t0               1.81204e+10
p0_c6_t0              2.86882e+09
p1_c6_t0              3.48767e+09
p2_c6_t0              1.14592e+10
p3_c6_t0              3.04682e+08
diff12                          0
normdiff12                      0
z_c6_t1               2.06345e+10
p0_c6_t1              3.08476e+09
p1_c6_t1              3.19673e+09
p2_c6_t1              1.41707e+10
p3_c6_t1               1.8229e+08
diff13                          0
normdiff13                      0
